17
16
9 7 5 8 3 12 0 10 14 11 1 4 2 15 6 13
5 12
4 7
12 14 3 9
10 4 16 5 15
5 16 4 9 11 6 15 10 2 3 8 13 7 14 0 1 12
11 9 7 10 15 8 3 13 5 1
7 6 2 13 10 14 4 12 16 8 11 0
8 12 14 5 3 1 4 2 0 6 13
8 11 1 12 3 16 14
0 13 15 5 1 14 16 9 10 2 12 11 6
1 3 14 16 8 6 0 10 7 5 11 9 2 4 12
12 10
7 11 13 14 6 4 5 1 9 8 16 0 12 15 3 10
14 4 8 9 11 6 3 10 13 12 7 16 2 5 1 0 15
3
